data/rand/rand_076.gr
p tdp 15 56
1 2
1 5
1 6
1 10
1 12
1 13
1 14
1 15
2 3
2 4
2 9
2 11
2 12
2 13
2 14
3 5
3 6
3 10
4 6
4 7
4 8
4 10
4 11
4 13
5 6
5 7
5 8
5 9
5 10
5 15
6 7
6 10
6 11
6 12
6 14
6 15
7 8
7 13
7 14
7 15
8 9
8 10
8 14
9 12
9 15
10 12
10 13
10 14
10 15
11 12
11 13
12 13
12 14
12 15
13 15
14 15
