solutions/best/rand/rand_076.sol
11
0
1
10
13
2
5
12
10
15
6
4
8
7
15
13
